10000 18
68800 2800
10500 1000
8800 600
8100 600
59000 4000
58500 3000
34000 1000
261500 100000
6700 200
100000 7000
6700 600
57000 6000
23900 2000
13000 1200
74000 7000
74000 1500
5000 800
16600 3000